7424246077436679925506,13,1,2,012,14,1,2,06,15,1,2,02,1,1,2,05,12,1,2,014,3,1,2,09,11,1,2,08,15,1,2,011,6,1,2,06,7,1,2,010,6,1,2,010,13,1,2,03,4,1,2,03,14,1,2,014,15,1,2,03,7,1,2,07,3,1,2,012,1,1,2,02,15,1,2,011,15,1,2,010,8,1,2,06,7,1,2,013,7,1,2,03,11,1,2,012,12,1,2,011,1,1,2,015,13,1,2,015,11,1,2,01,11,1,2,015,1,1,2,02,6,1,2,09,8,1,2,06,10,1,2,010,15,1,2,010,11,1,2,09,13,1,2,01,10,1,2,09,11,1,2,015,11,1,2,07,15,1,2,03,3,1,2,07,6,1,2,012,7,1,2,012,5,1,2,010,13,1,2,02,3,1,2,014,10,1,2,03,9,1,2,09,3,1,2,04,3,1,2,0